This is Ipopt version 3.10.0, running with linear solver ma27.

Number of nonzeros in equality constraint Jacobian...:        2
Number of nonzeros in inequality constraint Jacobian.:        4
Number of nonzeros in Lagrangian Hessian.............:        0

Total number of variables............................:        2
                     variables with only lower bounds:        0
                variables with lower and upper bounds:        2
                     variables with only upper bounds:        0
Total number of equality constraints.................:        1
Total number of inequality constraints...............:        2
        inequality constraints with only lower bounds:        0
   inequality constraints with lower and upper bounds:        0
        inequality constraints with only upper bounds:        2

iter    objective    inf_pr   inf_du lg(mu)  ||d||  lg(rg) alpha_du alpha_pr  ls
   0  9.0000000e+04 5.00e-01 3.00e+02   0.0 0.00e+00    -  0.00e+00 0.00e+00   0
   1  8.9356064e+04 4.98e-01 2.99e+02  -3.9 4.46e+02    -  3.07e-01 3.63e-03f  1
   2  8.9370262e+04 4.98e-01 6.00e+04   0.6 1.69e+02    -  5.42e-01 1.16e-03h  1
   3  8.6773988e+04 3.21e-01 3.77e+02   0.3 1.79e+02    -  1.00e+00 1.00e+00h  1
   4  1.0648778e+05 6.14e-02 5.52e+02   1.5 4.28e+01    -  9.88e-01 1.00e+00h  1
   5  1.1058581e+05 1.87e-02 9.13e+03   0.2 1.25e+01    -  1.00e+00 7.23e-01h  1
   6  1.1246614e+05 3.26e-04 1.49e+00  -1.1 4.12e+00    -  1.00e+00 1.00e+00h  1
   7  1.1249999e+05 1.02e-07 2.67e-03  -3.2 7.43e-02    -  9.99e-01 1.00e+00h  1
   8  1.1250000e+05 2.44e-13 2.57e-06  -9.2 2.29e-05    -  1.00e+00 1.00e+00h  1

Number of Iterations....: 8

                                   (scaled)                 (unscaled)
Objective...............:   1.1249999887497905e+05    1.1249999887497905e+05
Dual infeasibility......:   2.5749174443403347e-06    2.5749174443403347e-06
Constraint violation....:   2.4424906541753444e-13    2.4424906541753444e-13
Complementarity.........:   7.7260736193288083e-09    7.7260736193288083e-09
Overall NLP error.......:   1.0299670032278116e-08    2.5749174443403347e-06


Number of objective function evaluations             = 9
Number of objective gradient evaluations             = 9
Number of equality constraint evaluations            = 9
Number of inequality constraint evaluations          = 9
Number of equality constraint Jacobian evaluations   = 9
Number of inequality constraint Jacobian evaluations = 9
Number of Lagrangian Hessian evaluations             = 0
Total CPU secs in IPOPT (w/o function evaluations)   =      0.007
Total CPU secs in NLP function evaluations           =      0.000

EXIT: Optimal Solution Found.
